&dos
   outdir = './work/',
   prefix='graphene',
   fildos='graphene.dos',
/
